
Gurobi 9.1.2 (win64) logging started Tue Dec  7 10:23:28 2021

Gurobi Optimizer version 9.1.2 build v9.1.2rc0 (win64)
Thread count: 8 physical cores, 8 logical processors, using up to 8 threads
Optimize a model with 1 rows, 74 columns and 73 nonzeros
Model fingerprint: 0x2b7f1136
Variable types: 1 continuous, 73 integer (73 binary)
Coefficient statistics:
  Matrix range     [1e+00, 1e+01]
  Objective range  [1e+00, 1e+00]
  Bounds range     [5e+00, 5e+00]
  RHS range        [1e+01, 1e+01]
Presolve time: 0.00s
Presolved: 1 rows, 74 columns, 73 nonzeros
Variable types: 1 continuous, 73 integer (73 binary)

Root simplex log...

Iteration    Objective       Primal Inf.    Dual Inf.      Time
       0   -5.4963496e+00   2.070081e-01   0.000000e+00     15s
       4   -5.4963496e+00   0.000000e+00   0.000000e+00     15s

Root relaxation: objective -5.496350e+00, 4 iterations, 0.00 seconds

    Nodes    |    Current Node    |     Objective Bounds      |     Work
 Expl Unexpl |  Obj  Depth IntInf | Incumbent    BestBd   Gap | It/Node Time

     0     0   -5.49635    0    1          -   -5.49635      -     -   14s
H    0     0                       0.9553570   -5.49635   675%     -   14s
     0     0   -3.32031    0    3    0.95536   -3.32031   448%     -   14s
H    0     0                       0.9260068   -3.32031   459%     -   14s
     0     0   -2.46702    0    4    0.92601   -2.46702   366%     -   14s
     0     0   -2.09689    0    6    0.92601   -2.09689   326%     -   14s
     0     0   -2.04467    0    5    0.92601   -2.04467   321%     -   15s
     0     0   -1.92588    0    6    0.92601   -1.92588   308%     -   15s
     0     0   -1.82345    0    6    0.92601   -1.82345   297%     -   15s
     0     0   -1.57545    0    7    0.92601   -1.57545   270%     -   15s
     0     0   -1.57180    0    8    0.92601   -1.57180   270%     -   15s
     0     0   -1.35424    0    5    0.92601   -1.35424   246%     -   15s
     0     0   -1.35166    0    5    0.92601   -1.35166   246%     -   15s
     0     0   -1.35104    0    7    0.92601   -1.35104   246%     -   15s
     0     0   -1.33334    0    6    0.92601   -1.33334   244%     -   15s
     0     2   -0.99402    0    6    0.92601   -0.99402   207%     -   15s

Cutting planes:
  MIR: 5
  StrongCG: 1
  Lazy constraints: 11

Explored 10 nodes (99 simplex iterations) in 15.94 seconds
Thread count was 8 (of 8 available processors)

Solution count 2: 0.926007 0.955357 

Optimal solution found (tolerance 1.00e-04)
Best objective 9.260067947951e-01, best bound 9.260067947951e-01, gap 0.0000%

User-callback calls 163, time in user-callback 19.59 sec
